c Standarized MaxSat Instance
c{
c "sha1sum": "c4990643309681db9b0788e5b0069e2fd387409e",
c "nvars": 60,
c "ncls": 686,
c "total_lits": 1312,
c "nhards": 626,
c "nhard_nlits": 1252,
c "nhard_len_stats":
c    { "min": 2,
c      "max": 2,
c      "ave": 2.0000,
c      "stddev": 0.0000 },
c "nsofts": 60,
c "nsoft_nlits": 60,
c "nsoft_len_stats":
c    { "min": 1,
c      "max": 1,
c      "ave": 1.0000,
c      "stddev": 0.0000 },
c "nsoft_wts": 1,
c "soft_wt_stats":
c    { "min": 1,
c      "max": 1,
c      "ave": 1.0000,
c      "stddev": 0.0000 }
c}
c------------------------------------------------------------
c optimum value = 38196
1 1 0
1 2 0
1 3 0
1 4 0
1 5 0
1 6 0
1 7 0
1 8 0
1 9 0
1 10 0
1 11 0
1 12 0
1 13 0
1 14 0
1 15 0
1 16 0
1 17 0
1 18 0
1 19 0
1 20 0
1 21 0
1 22 0
1 23 0
1 24 0
1 25 0
1 26 0
1 27 0
1 28 0
1 29 0
1 30 0
1 31 0
1 32 0
1 33 0
1 34 0
1 35 0
1 36 0
1 37 0
1 38 0
1 39 0
1 40 0
1 41 0
1 42 0
1 43 0
1 44 0
1 45 0
1 46 0
1 47 0
1 48 0
1 49 0
1 50 0
1 51 0
1 52 0
1 53 0
1 54 0
1 55 0
1 56 0
1 57 0
1 58 0
1 59 0
1 60 0
h -1 -2 0
h -1 -3 0
h -1 -4 0
h -1 -5 0
h -1 -6 0
h -2 -3 0
h -2 -4 0
h -2 -5 0
h -2 -6 0
h -3 -4 0
h -3 -5 0
h -3 -6 0
h -4 -5 0
h -4 -6 0
h -5 -6 0
h -7 -8 0
h -7 -9 0
h -7 -10 0
h -7 -11 0
h -7 -12 0
h -8 -9 0
h -8 -10 0
h -8 -11 0
h -8 -12 0
h -9 -10 0
h -9 -11 0
h -9 -12 0
h -10 -11 0
h -10 -12 0
h -11 -12 0
h -13 -14 0
h -13 -15 0
h -13 -16 0
h -13 -17 0
h -13 -18 0
h -14 -15 0
h -14 -16 0
h -14 -17 0
h -14 -18 0
h -15 -16 0
h -15 -17 0
h -15 -18 0
h -16 -17 0
h -16 -18 0
h -17 -18 0
h -19 -20 0
h -19 -21 0
h -19 -22 0
h -19 -23 0
h -19 -24 0
h -20 -21 0
h -20 -22 0
h -20 -23 0
h -20 -24 0
h -21 -22 0
h -21 -23 0
h -21 -24 0
h -22 -23 0
h -22 -24 0
h -23 -24 0
h -25 -26 0
h -25 -27 0
h -25 -28 0
h -25 -29 0
h -25 -30 0
h -26 -27 0
h -26 -28 0
h -26 -29 0
h -26 -30 0
h -27 -28 0
h -27 -29 0
h -27 -30 0
h -28 -29 0
h -28 -30 0
h -29 -30 0
h -31 -32 0
h -31 -33 0
h -31 -34 0
h -31 -35 0
h -31 -36 0
h -32 -33 0
h -32 -34 0
h -32 -35 0
h -32 -36 0
h -33 -34 0
h -33 -35 0
h -33 -36 0
h -34 -35 0
h -34 -36 0
h -35 -36 0
h -37 -38 0
h -37 -39 0
h -37 -40 0
h -37 -41 0
h -37 -42 0
h -38 -39 0
h -38 -40 0
h -38 -41 0
h -38 -42 0
h -39 -40 0
h -39 -41 0
h -39 -42 0
h -40 -41 0
h -40 -42 0
h -41 -42 0
h -43 -44 0
h -43 -45 0
h -43 -46 0
h -43 -47 0
h -43 -48 0
h -44 -45 0
h -44 -46 0
h -44 -47 0
h -44 -48 0
h -45 -46 0
h -45 -47 0
h -45 -48 0
h -46 -47 0
h -46 -48 0
h -47 -48 0
h -49 -50 0
h -49 -51 0
h -49 -52 0
h -49 -53 0
h -49 -54 0
h -50 -51 0
h -50 -52 0
h -50 -53 0
h -50 -54 0
h -51 -52 0
h -51 -53 0
h -51 -54 0
h -52 -53 0
h -52 -54 0
h -53 -54 0
h -55 -56 0
h -55 -57 0
h -55 -58 0
h -55 -59 0
h -55 -60 0
h -56 -57 0
h -56 -58 0
h -56 -59 0
h -56 -60 0
h -57 -58 0
h -57 -59 0
h -57 -60 0
h -58 -59 0
h -58 -60 0
h -59 -60 0
h -11 -33 0
h -9 -31 0
h -7 -33 0
h -8 -33 0
h -12 -36 0
h -8 -31 0
h -11 -36 0
h -12 -32 0
h -10 -35 0
h -4 -48 0
h -4 -47 0
h -2 -44 0
h -3 -46 0
h -4 -43 0
h -3 -44 0
h -1 -43 0
h -1 -47 0
h -5 -44 0
h -40 -44 0
h -42 -48 0
h -40 -45 0
h -40 -47 0
h -42 -47 0
h -42 -43 0
h -39 -45 0
h -40 -43 0
h -37 -45 0
h -22 -59 0
h -23 -56 0
h -19 -59 0
h -22 -55 0
h -19 -55 0
h -24 -56 0
h -23 -57 0
h -19 -57 0
h -24 -59 0
h -4 -51 0
h -3 -54 0
h -1 -50 0
h -2 -51 0
h -1 -49 0
h -3 -51 0
h -4 -54 0
h -3 -50 0
h -2 -53 0
h -7 -31 0
h -7 -34 0
h -7 -32 0
h -11 -31 0
h -12 -31 0
h -1 -39 0
h -6 -38 0
h -5 -38 0
h -6 -42 0
h -3 -42 0
h -2 -41 0
h -6 -41 0
h -5 -37 0
h -2 -37 0
h -18 -23 0
h -13 -20 0
h -14 -22 0
h -14 -20 0
h -16 -21 0
h -15 -22 0
h -17 -23 0
h -14 -23 0
h -14 -19 0
h -5 -15 0
h -3 -13 0
h -4 -15 0
h -6 -13 0
h -2 -14 0
h -1 -18 0
h -2 -17 0
h -3 -16 0
h -3 -14 0
h -23 -25 0
h -23 -28 0
h -22 -29 0
h -21 -25 0
h -22 -30 0
h -19 -26 0
h -19 -27 0
h -22 -27 0
h -20 -29 0
h -20 -46 0
h -19 -48 0
h -19 -45 0
h -24 -44 0
h -22 -46 0
h -24 -46 0
h -20 -44 0
h -21 -46 0
h -20 -45 0
h -25 -45 0
h -27 -44 0
h -27 -46 0
h -28 -43 0
h -27 -48 0
h -26 -46 0
h -30 -48 0
h -26 -45 0
h -29 -43 0
h -11 -48 0
h -8 -43 0
h -9 -48 0
h -7 -43 0
h -10 -43 0
h -9 -44 0
h -11 -47 0
h -12 -46 0
h -7 -47 0
h -4 -50 0
h -6 -50 0
h -5 -51 0
h -2 -52 0
h -5 -54 0
h -6 -53 0
h -4 -52 0
h -1 -51 0
h -6 -51 0
h -9 -53 0
h -7 -53 0
h -7 -51 0
h -10 -50 0
h -7 -54 0
h -7 -52 0
h -11 -51 0
h -9 -50 0
h -8 -49 0
h -30 -51 0
h -29 -54 0
h -28 -51 0
h -28 -49 0
h -26 -54 0
h -29 -52 0
h -30 -50 0
h -25 -50 0
h -26 -53 0
h -20 -57 0
h -21 -58 0
h -21 -55 0
h -24 -55 0
h -23 -59 0
h -24 -58 0
h -21 -60 0
h -20 -60 0
h -11 -40 0
h -11 -41 0
h -7 -38 0
h -8 -42 0
h -7 -40 0
h -9 -38 0
h -8 -40 0
h -7 -37 0
h -9 -39 0
h -15 -24 0
h -15 -19 0
h -16 -20 0
h -13 -21 0
h -15 -20 0
h -13 -23 0
h -40 -59 0
h -41 -58 0
h -41 -57 0
h -39 -56 0
h -37 -57 0
h -37 -56 0
h -37 -55 0
h -38 -56 0
h -38 -60 0
h -1 -22 0
h -4 -19 0
h -4 -22 0
h -3 -19 0
h -5 -20 0
h -6 -24 0
h -4 -21 0
h -5 -19 0
h -5 -24 0
h -29 -53 0
h -26 -49 0
h -29 -51 0
h -27 -50 0
h -27 -54 0
h -25 -54 0
h -22 -58 0
h -24 -60 0
h -19 -60 0
h -23 -60 0
h -21 -57 0
h -19 -56 0
h -37 -51 0
h -40 -52 0
h -38 -51 0
h -37 -53 0
h -42 -52 0
h -39 -53 0
h -41 -53 0
h -40 -54 0
h -37 -49 0
h -19 -35 0
h -24 -36 0
h -24 -33 0
h -23 -31 0
h -23 -32 0
h -20 -36 0
h -20 -31 0
h -24 -32 0
h -20 -33 0
h -2 -7 0
h -5 -11 0
h -1 -9 0
h -4 -10 0
h -1 -10 0
h -3 -7 0
h -5 -12 0
h -1 -7 0
h -3 -9 0
h -41 -50 0
h -39 -51 0
h -41 -52 0
h -38 -52 0
h -40 -49 0
h -42 -54 0
h -18 -40 0
h -16 -37 0
h -13 -37 0
h -14 -42 0
h -15 -40 0
h -16 -38 0
h -15 -42 0
h -14 -37 0
h -13 -40 0
h -2 -11 0
h -1 -11 0
h -3 -11 0
h -4 -12 0
h -6 -9 0
h -1 -8 0
h -22 -44 0
h -19 -47 0
h -22 -47 0
h -20 -43 0
h -23 -44 0
h -20 -47 0
h -23 -48 0
h -23 -35 0
h -19 -32 0
h -22 -35 0
h -22 -33 0
h -23 -34 0
h -23 -36 0
h -21 -34 0
h -8 -48 0
h -11 -45 0
h -10 -44 0
h -7 -44 0
h -12 -43 0
h -10 -47 0
h -12 -47 0
h -11 -46 0
h -8 -36 0
h -11 -35 0
h -7 -36 0
h -9 -32 0
h -10 -36 0
h -8 -32 0
h -38 -58 0
h -42 -58 0
h -38 -59 0
h -39 -55 0
h -41 -56 0
h -42 -55 0
h -40 -57 0
h -10 -16 0
h -10 -18 0
h -9 -14 0
h -7 -14 0
h -8 -14 0
h -12 -16 0
h -11 -15 0
h -7 -15 0
h -11 -18 0
h -4 -28 0
h -3 -29 0
h -2 -30 0
h -6 -26 0
h -2 -28 0
h -1 -26 0
h -2 -26 0
h -5 -28 0
h -4 -29 0
h -7 -16 0
h -10 -17 0
h -11 -14 0
h -12 -18 0
h -11 -16 0
h -10 -15 0
h -11 -17 0
h -15 -31 0
h -18 -36 0
h -13 -35 0
h -17 -36 0
h -15 -34 0
h -17 -33 0
h -16 -33 0
h -18 -33 0
h -14 -33 0
h -14 -40 0
h -17 -42 0
h -15 -41 0
h -16 -42 0
h -13 -39 0
h -18 -37 0
h -19 -33 0
h -21 -33 0
h -22 -32 0
h -21 -36 0
h -24 -31 0
h -26 -48 0
h -28 -45 0
h -28 -47 0
h -30 -47 0
h -25 -44 0
h -28 -48 0
h -28 -44 0
h -11 -34 0
h -9 -36 0
h -9 -34 0
h -11 -37 0
h -8 -41 0
h -8 -38 0
h -8 -39 0
h -7 -41 0
h -29 -56 0
h -28 -58 0
h -25 -57 0
h -30 -60 0
h -29 -60 0
h -28 -57 0
h -29 -58 0
h -25 -56 0
h -26 -56 0
h -9 -28 0
h -11 -30 0
h -8 -30 0
h -12 -26 0
h -8 -27 0
h -12 -27 0
h -12 -30 0
h -8 -26 0
h -10 -29 0
h -3 -38 0
h -3 -37 0
h -1 -38 0
h -3 -41 0
h -4 -39 0
h -4 -37 0
h -5 -42 0
h -34 -56 0
h -33 -59 0
h -33 -57 0
h -33 -58 0
h -34 -58 0
h -31 -56 0
h -32 -58 0
h -35 -55 0
h -33 -56 0
h -23 -52 0
h -24 -49 0
h -19 -53 0
h -21 -51 0
h -19 -52 0
h -19 -50 0
h -21 -54 0
h -24 -54 0
h -22 -52 0
h -5 -46 0
h -4 -45 0
h -2 -47 0
h -5 -45 0
h -5 -47 0
h -6 -45 0
h -6 -43 0
h -5 -49 0
h -1 -54 0
h -2 -49 0
h -3 -33 0
h -1 -34 0
h -1 -36 0
h -3 -36 0
h -2 -31 0
h -5 -34 0
h -2 -32 0
h -6 -34 0
h -4 -36 0
h -2 -42 0
h -1 -40 0
h -6 -40 0
h -1 -37 0
h -23 -50 0
h -20 -52 0
h -24 -51 0
h -24 -50 0
h -23 -51 0
h -23 -54 0
h -20 -49 0
h -2 -25 0
h -4 -26 0
h -3 -27 0
h -3 -30 0
h -2 -27 0
h -3 -26 0
h -6 -30 0
h -11 -52 0
h -8 -52 0
h -10 -53 0
h -9 -51 0
h -11 -49 0
h -9 -52 0
h -33 -40 0
h -33 -41 0
h -36 -37 0
h -36 -41 0
h -36 -40 0
h -36 -38 0
h -31 -38 0
h -34 -39 0
h -36 -42 0
h -30 -56 0
h -30 -55 0
h -28 -59 0
h -26 -60 0
h -26 -58 0
h -24 -53 0
h -20 -54 0
h -23 -49 0
h -20 -50 0
h -21 -53 0
h -14 -21 0
h -17 -19 0
h -14 -24 0
h -16 -24 0
h -2 -59 0
h -3 -59 0
h -6 -57 0
h -5 -59 0
h -6 -60 0
h -2 -57 0
h -2 -56 0
h -6 -58 0
h -1 -59 0
h -35 -53 0
h -31 -51 0
h -33 -52 0
h -32 -51 0
h -32 -50 0
h -31 -49 0
h -33 -50 0
h -36 -53 0
h -33 -49 0
h -13 -58 0
h -16 -56 0
h -14 -55 0
h -18 -57 0
h -16 -55 0
h -17 -59 0
h -16 -58 0
h -16 -59 0
h -14 -59 0
h -17 -21 0
h -13 -19 0
h -16 -23 0
h -15 -23 0
